40
1 0 1
2 0 2
2 1 1
3 0 2
3 1 2
3 2 1
4 0 1
4 1 2
4 2 2
4 3 2
5 0 2
5 1 2
5 2 2
5 3 2
5 4 1
6 0 2
6 1 1
6 2 1
6 3 2
6 4 2
6 5 1
7 0 1
7 1 1
7 2 2
7 3 2
7 4 1
7 5 1
7 6 1
8 0 2
8 1 2
8 2 2
8 3 2
8 4 2
8 5 1
8 6 2
8 7 1
9 0 1
9 1 2
9 2 1
9 3 1
9 4 1
9 5 2
9 6 2
9 7 1
9 8 1
10 0 2
10 1 1
10 2 2
10 3 1
10 4 2
10 5 1
10 6 2
10 7 1
10 8 1
10 9 1
11 0 1
11 1 1
11 2 1
11 3 2
11 4 2
11 5 2
11 6 1
11 7 1
11 8 2
11 9 1
11 10 1
12 0 2
12 1 1
12 2 1
12 3 1
12 4 2
12 5 1
12 6 2
12 7 1
12 8 2
12 9 2
12 10 2
12 11 2
13 0 1
13 1 1
13 2 1
13 3 2
13 4 1
13 5 1
13 6 2
13 7 1
13 8 1
13 9 2
13 10 1
13 11 1
13 12 2
14 0 2
14 1 2
14 2 2
14 3 2
14 4 2
14 5 1
14 6 1
14 7 2
14 8 1
14 9 1
14 10 2
14 11 1
14 12 2
14 13 2
15 0 1
15 1 2
15 2 1
15 3 1
15 4 2
15 5 1
15 6 1
15 7 1
15 8 1
15 9 1
15 10 2
15 11 2
15 12 2
15 13 1
15 14 2
16 0 2
16 1 1
16 2 1
16 3 1
16 4 2
16 5 1
16 6 1
16 7 2
16 8 1
16 9 1
16 10 1
16 11 1
16 12 2
16 13 1
16 14 1
16 15 2
17 0 2
17 1 2
17 2 2
17 3 2
17 4 1
17 5 2
17 6 1
17 7 2
17 8 2
17 9 1
17 10 2
17 11 2
17 12 2
17 13 2
17 14 2
17 15 2
17 16 1
18 0 1
18 1 1
18 2 1
18 3 2
18 4 2
18 5 1
18 6 2
18 7 1
18 8 1
18 9 2
18 10 1
18 11 1
18 12 2
18 13 1
18 14 2
18 15 1
18 16 2
18 17 1
19 0 2
19 1 2
19 2 2
19 3 2
19 4 1
19 5 2
19 6 1
19 7 1
19 8 2
19 9 1
19 10 2
19 11 2
19 12 2
19 13 2
19 14 1
19 15 2
19 16 2
19 17 1
19 18 1
20 0 2
20 1 2
20 2 2
20 3 1
20 4 1
20 5 2
20 6 1
20 7 2
20 8 1
20 9 2
20 10 2
20 11 2
20 12 2
20 13 1
20 14 1
20 15 1
20 16 2
20 17 1
20 18 1
20 19 2
21 0 1
21 1 1
21 2 1
21 3 2
21 4 1
21 5 2
21 6 2
21 7 2
21 8 2
21 9 2
21 10 2
21 11 1
21 12 2
21 13 2
21 14 2
21 15 2
21 16 2
21 17 2
21 18 1
21 19 1
21 20 1
22 0 1
22 1 1
22 2 1
22 3 2
22 4 2
22 5 1
22 6 2
22 7 2
22 8 1
22 9 1
22 10 1
22 11 1
22 12 1
22 13 1
22 14 2
22 15 2
22 16 2
22 17 2
22 18 1
22 19 2
22 20 1
22 21 1
23 0 1
23 1 2
23 2 2
23 3 1
23 4 2
23 5 2
23 6 2
23 7 2
23 8 2
23 9 1
23 10 1
23 11 2
23 12 1
23 13 2
23 14 1
23 15 2
23 16 2
23 17 1
23 18 2
23 19 2
23 20 1
23 21 1
23 22 1
24 0 2
24 1 2
24 2 2
24 3 1
24 4 2
24 5 1
24 6 1
24 7 1
24 8 1
24 9 1
24 10 1
24 11 2
24 12 1
24 13 1
24 14 2
24 15 1
24 16 1
24 17 2
24 18 1
24 19 1
24 20 1
24 21 2
24 22 2
24 23 1
25 0 2
25 1 1
25 2 2
25 3 1
25 4 2
25 5 2
25 6 1
25 7 2
25 8 2
25 9 1
25 10 2
25 11 2
25 12 2
25 13 1
25 14 2
25 15 2
25 16 1
25 17 2
25 18 2
25 19 2
25 20 1
25 21 2
25 22 2
25 23 2
25 24 2
26 0 1
26 1 1
26 2 1
26 3 1
26 4 1
26 5 2
26 6 1
26 7 2
26 8 2
26 9 2
26 10 1
26 11 2
26 12 2
26 13 2
26 14 2
26 15 2
26 16 1
26 17 2
26 18 2
26 19 2
26 20 2
26 21 1
26 22 1
26 23 1
26 24 2
26 25 1
27 0 2
27 1 1
27 2 2
27 3 1
27 4 1
27 5 1
27 6 1
27 7 2
27 8 1
27 9 1
27 10 2
27 11 2
27 12 1
27 13 1
27 14 1
27 15 1
27 16 1
27 17 2
27 18 1
27 19 1
27 20 1
27 21 2
27 22 1
27 23 1
27 24 2
27 25 2
27 26 1
28 0 1
28 1 1
28 2 1
28 3 2
28 4 2
28 5 2
28 6 1
28 7 2
28 8 2
28 9 2
28 10 2
28 11 2
28 12 1
28 13 1
28 14 2
28 15 1
28 16 2
28 17 2
28 18 1
28 19 1
28 20 2
28 21 2
28 22 2
28 23 1
28 24 2
28 25 1
28 26 2
28 27 1
29 0 2
29 1 1
29 2 2
29 3 1
29 4 2
29 5 1
29 6 2
29 7 1
29 8 2
29 9 2
29 10 2
29 11 1
29 12 2
29 13 1
29 14 2
29 15 1
29 16 1
29 17 2
29 18 2
29 19 2
29 20 1
29 21 1
29 22 1
29 23 2
29 24 1
29 25 2
29 26 1
29 27 1
29 28 2
30 0 2
30 1 2
30 2 1
30 3 1
30 4 2
30 5 1
30 6 2
30 7 2
30 8 2
30 9 2
30 10 2
30 11 1
30 12 2
30 13 2
30 14 2
30 15 2
30 16 1
30 17 2
30 18 1
30 19 2
30 20 2
30 21 2
30 22 2
30 23 1
30 24 1
30 25 1
30 26 2
30 27 1
30 28 1
30 29 1
31 0 1
31 1 1
31 2 2
31 3 1
31 4 1
31 5 2
31 6 1
31 7 2
31 8 2
31 9 2
31 10 1
31 11 2
31 12 2
31 13 2
31 14 1
31 15 1
31 16 1
31 17 1
31 18 1
31 19 1
31 20 1
31 21 2
31 22 1
31 23 1
31 24 1
31 25 2
31 26 1
31 27 2
31 28 2
31 29 1
31 30 1
32 0 2
32 1 2
32 2 1
32 3 2
32 4 2
32 5 2
32 6 2
32 7 1
32 8 1
32 9 1
32 10 1
32 11 2
32 12 2
32 13 2
32 14 2
32 15 1
32 16 1
32 17 2
32 18 1
32 19 1
32 20 2
32 21 2
32 22 1
32 23 2
32 24 1
32 25 1
32 26 2
32 27 2
32 28 1
32 29 1
32 30 2
32 31 2
33 0 2
33 1 2
33 2 1
33 3 2
33 4 1
33 5 1
33 6 2
33 7 2
33 8 2
33 9 1
33 10 2
33 11 2
33 12 2
33 13 1
33 14 2
33 15 2
33 16 2
33 17 1
33 18 2
33 19 2
33 20 1
33 21 1
33 22 1
33 23 2
33 24 1
33 25 1
33 26 1
33 27 2
33 28 2
33 29 2
33 30 1
33 31 1
33 32 2
34 0 2
34 1 2
34 2 1
34 3 2
34 4 2
34 5 2
34 6 1
34 7 1
34 8 1
34 9 2
34 10 2
34 11 2
34 12 2
34 13 2
34 14 2
34 15 1
34 16 1
34 17 1
34 18 2
34 19 1
34 20 2
34 21 2
34 22 2
34 23 1
34 24 2
34 25 1
34 26 2
34 27 2
34 28 2
34 29 2
34 30 1
34 31 2
34 32 2
34 33 1
35 0 2
35 1 2
35 2 1
35 3 1
35 4 1
35 5 1
35 6 1
35 7 1
35 8 2
35 9 1
35 10 1
35 11 2
35 12 2
35 13 1
35 14 1
35 15 1
35 16 1
35 17 2
35 18 2
35 19 2
35 20 2
35 21 1
35 22 2
35 23 1
35 24 1
35 25 2
35 26 2
35 27 2
35 28 2
35 29 2
35 30 1
35 31 2
35 32 1
35 33 2
35 34 2
36 0 1
36 1 1
36 2 1
36 3 2
36 4 2
36 5 1
36 6 2
36 7 2
36 8 2
36 9 1
36 10 2
36 11 1
36 12 1
36 13 2
36 14 1
36 15 2
36 16 1
36 17 2
36 18 1
36 19 1
36 20 1
36 21 2
36 22 2
36 23 2
36 24 2
36 25 1
36 26 2
36 27 1
36 28 2
36 29 1
36 30 2
36 31 2
36 32 1
36 33 1
36 34 1
36 35 1
37 0 2
37 1 1
37 2 2
37 3 2
37 4 2
37 5 1
37 6 1
37 7 2
37 8 2
37 9 2
37 10 1
37 11 1
37 12 2
37 13 1
37 14 2
37 15 2
37 16 1
37 17 2
37 18 2
37 19 2
37 20 2
37 21 2
37 22 1
37 23 1
37 24 1
37 25 1
37 26 1
37 27 1
37 28 1
37 29 1
37 30 2
37 31 1
37 32 2
37 33 2
37 34 2
37 35 2
37 36 1
38 0 2
38 1 1
38 2 2
38 3 2
38 4 2
38 5 2
38 6 1
38 7 1
38 8 1
38 9 1
38 10 2
38 11 1
38 12 1
38 13 2
38 14 2
38 15 2
38 16 2
38 17 1
38 18 2
38 19 1
38 20 1
38 21 1
38 22 1
38 23 1
38 24 1
38 25 1
38 26 1
38 27 2
38 28 2
38 29 1
38 30 1
38 31 1
38 32 2
38 33 1
38 34 2
38 35 2
38 36 1
38 37 2
39 0 2
39 1 1
39 2 1
39 3 1
39 4 2
39 5 2
39 6 1
39 7 2
39 8 2
39 9 2
39 10 2
39 11 1
39 12 2
39 13 1
39 14 2
39 15 1
39 16 1
39 17 1
39 18 2
39 19 2
39 20 1
39 21 1
39 22 1
39 23 1
39 24 1
39 25 1
39 26 2
39 27 2
39 28 1
39 29 1
39 30 2
39 31 1
39 32 1
39 33 2
39 34 1
39 35 1
39 36 2
39 37 2
39 38 1
